28093 11418 9461 9242 9086 9169 9368 9367 9460 9439 9434 9434 9434 9434 9434 9434 9434 9434 9434 9434 9434 9434 9434 9434 9434 9434 9434 9434 9434 9434 9434 9434 9434 9434 9434 9434 9434 9434 9434 9434 9434 9434 9434 9434 9434 9434 9434 9434 9434 9434 9434 9434 9434 9434 9434 9434 9404 9404 9404 9404 9404 9404 9404 9404 9404 9404 9404 9404 9404 9404 9404 9404 9404 9404 9404 9404 9404 9404 9417 9417 9404 9417 9417 9417 9417 9417 9417 9417 9417 9417 9417 9417 9417 9417 9417 9417 9417 9417 9417 9417 9417 9417 9417 9417 9417 9417 9417 9417 9417 9417 9417 9417 9417 9417 9417 9417 9483 9417 9417 9417 9417 9417 9417 9417 9417 9417 9417 9417 9417 9417 9417 9417 9417 9417 9417 9417 9417 9417 9417 9417 9417 9417 9417 9417 9417 9417 9417 9417 9417 9417 9417 9417 9417 9417 9417 9417 9417 9417 9417 9417 9417 9417 9417 9417 9417 9417 9417 9417 9417 9417 9417 9417 9417 9417 9417 9417 9417 9417 9417 9417 9417 9417 9417 9417 9417 9417 9417 9417 9417 9417 9417 9417 9417 9437 9417 9417 9417 9417 9417 9417 9417 9406 9417 9417 9392 9417 9417 9417 9417 9417 9417 9417 9417 9417 9417 9417 9417 9417 9417 9417 9417 9417 9417 9417 9417 9417 9417 9437 9417 9417 9417 9417 9417 9417 9417 9417 9417 9417 9417 9417 9417 9417 9417 9417 9417 9417 9417 9417 9417 9417 9417 9417 9417 9417 9417 9417 9417 9417 9417 9417 9417 9417 9417 9417 9417 9417 9417 9417 9437 9417 9417 9417 9417 9417 9417 9417 9417 9417 9417 9417 9417 9417 9417 9417 9417 9417 9417 9417 9417 9417 9417 9417 9417 9417 9417 9417 9417 9417 9417 9417 9437 9417 9417 9417 9417 9417 9417 9417 9417 9417 9417 9417 9417 9417 9417 9417 9417 9417 9417 9417 9417 9417 9417 9417 9437 9417 9417 9417 9417 9417 9417 9417 9417 9417 9417 9417 9417 9437 9417 9417 9417 9417 9392 9417 9417 9417 9417 9417 9417 9417 9417 9417 9417 9417 9417 9417 9417 9417 9417 9417 9417 9417 9417 9417 9417 9417 9417 9417 9417 9417 9417 9417 9417 9417 9417 9417 9417 9417 9417 9417 9417 9417 9417 9417 9417 9417 9417 9417 9417 9417 9417 9417 9417 9417 9417 9417 9417 9406 9406 9406 9392 9392 9392 9417 9406 9392 9392 9392 9392 9392 9392 9392 9417 9417 9417 9406 9392 9406 9417 9406 9406 9392 9392 9406 9392 9392 9392 9392 9392 9392 9392 9392 9406 9392 9406 9406 9406 9392 9392 9392 9392 9392 9392 9392 9392 9392 9406 9392 9406 9406 9406 9392 9392 9392 9392 9392 9392 9392 9392 9392 9392 9406 9406 9392 9417 9417 9406 9406 9406 9406 9406 9406 9417 9406 9392 9392 9392 9392 9406 9392 9392 9392 9392 9392 9392 9392 9406 9406 9406 9406 9406 9406 9406 9406 9406 9406 9392 9406 9406 9392 9406 9392 9392 9392 9392 9406 9406 9406 9417 9406 9392 9392 9392 9392 9392 9392 9406 9392 9392 9406 9392 9406 9406 9406 9417 9406 9392 9392 9392 9392 9406 9406 9406 9406 9392 9406 9406 9406 9392 9406 9392 9406 9392 9392 9392 9392 9406 9406 9406 9406 9406 9392 9392 9392 9392 9392 9406 9392 9406 9406 9392 9392 9406 9392 9392 9392 9392 9392 9392 9392 9392 9406 9406 9406 9406 9392 9406 9392 9392 9392 9406 9392 9406 9392 9392 9392 9392 9392 9406 9392 9392 9392 9406 9392 9392 9392 9392 9392 9392 9392 9406 9406 9406 9406 9406 9406 9392 9406 9406 9392 9406 9392 9406 9392 9392 9392 9392 9406 9392 9406 9406 9406 9406 9406 9406 9406 9406 9406 9406 9392 9406 9406 9392 9392 9406 9392 9392 9406 9392 9392 9406 9406 9406 9406 9406 9392 9406 9406 9406 9392 9406 9406 9406 9406 9406 9406 9392 9406 9417 9406 9406 9392 9406 9406 9392 9392 9392 9392 9392 9392 9392 9392 9392 9406 9392 9392 9392 9392 9392 9417 9392 9392 9406 9392 9392 9392 9392 9392 9392 9392 9406 9392 9392 9406 9406 9392 9392 9392 9392 9406 9392 9392 9406 9392 9406 9392 9392 9406 9392 9392 9392 9406 9406 9392 9392 9392 9392 9406 9406 9392 9392 9392 9392 9406 9406 9406 9392 9392 9392 9392 9392 9392 9392 9406 9392 9392 9406 9392 9406 9392 9392 9392 9392 9392 9392 9392 9392 9392 9392 9392 9392 9392 9392 9392 9392 9392 9392 9392 9392 9392 9392 9406 9392 9406 9392 9392 9392 9392 9406 9417 9406 9392 9392 9392 9392 9406 9392 9392 9392 9392 9406 9392 9392 9392 9392 9392 9392 9392 9417 9406 9406 9406 9392 9406 9406 9392 9392 9392 9406 9406 9392 9392 9392 9406 9392 9392 9406 9406 9406 9392 9417 9392 9392 9392 9392 9392 9392 9406 9392 9406 9392 9392 9406 9392 9392 9392 9392 9392 9392 9392 9392 9392 9392 9392 9392 9392 9392 9392 9392 9392 9392 9392 9392 9406 9392 9392 9392 9392 9392 9392 9392 9392 9392 9392 9406 9406 9406 9392 9392 9392 9392 9392 9392 9392 9392 9392 9392 9392 9392 9392 9392 9392 9392 9406 9406 9392 9392 9392 9392 9406 9406 9406 9392 9392 9406 9406 9406 9392 9392 9406 9406 9406 9406 9406 9392 9392 9392 9392 9392 9392 9392 9392 9392 9392 9392 9392 9392 9392 9392 9392 9392 9406 9392 9392 9392 9392 9392 9406 9392 9392 9392 9392 9392 9392 9392 9392 9392 9392 9392 9406 9406 9406 9392 9406 9392 9406 9406 9392 9406 9392 9392 9417 9392 9392 9392 9406 9406 9392 9406 9392 9392 9392 9392 9406 9392 9406 9392 9392 9392 9392 9406 9406 9392 9392 9392 9392 9392 9406 9392 9392 9392 9392 9437 9406 9392 9392 9392 9437 9392 9406 9417 9406 9406 9392 9406 9406 9406 9392 9392 9392 9392 9392 9392 9392 9392 9392 9406 9406 9392 9392 